! Solving for graph ../../../benchmarks/abp/M-bcsstk06.mtx.rnd
! Target value is set to 51
 ! --------------------------------------------------- CP Optimizer 22.2.0.0 --
 ! Minimization problem - 421 variables, 4141 constraints, 1 phase
 ! TimeLimit            = 1800
 ! LogVerbosity         = Terse
 ! Initial process time : 0.04s (0.04s extraction + 0.00s propagation)
 !  . Log search space  : 3914.8 (before), 3914.8 (after)
 !  . Memory usage      : 1.5 MB (before), 1.5 MB (after)
 ! Using parallel search with 8 workers.
 ! ----------------------------------------------------------------------------
 !          Best Branches  Non-fixed    W       Branch decision
                        0        421                 -
 + New bound is 52
                        2        420    1   F     1 != _int245
 + New bound is 53
 ! ----------------------------------------------------------------------------
 ! Search terminated by limit, no solution found.
 ! Best bound             : 53
 ! ----------------------------------------------------------------------------
 ! Number of branches     : 215981369
 ! Number of fails        : 101852590
 ! Total memory usage     : 272.8 MB (270.9 MB CP Optimizer + 1.9 MB Concert)
 ! Time spent in solve    : 1800.05s (1800.02s engine + 0.04s extraction)
 ! Search speed (br. / s) : 119989.0
 ! ----------------------------------------------------------------------------
! --------------------------------------------------------
! No solution
! --------------------------------------------------------
